
  32    1
  10

   0   0   3 2 3 6 
   3   1   4 8 7 5 4 
   4   1   4 16 10 8 7 
   6   3   7 16 15 14 13 12 11 10 
   6   3   5 15 13 12 11 10 
   3   3   5 17 16 15 14 11 
   8   3   3 15 13 9 
   4   2   3 15 14 13 
   1   3   2 17 11 
   9   2   4 22 19 18 17 
  10   2   4 22 20 19 18 
   6   1   4 22 20 19 18 
   7   1   3 22 19 17 
   3   1   4 22 21 20 18 
   9   3   2 20 18 
   9   4   2 22 20 
   9   2   2 23 20 
   3   2   3 26 25 23 
   3   1   2 23 21 
   3   1   4 29 26 25 24 
   3   1   3 29 26 24 
   8   4   1 23 
   2   1   2 29 24 
   7   1   3 31 28 27 
  10   2   3 31 28 27 
   1   1   1 27 
   9   1   1 30 
   6   2   1 30 
  10   4   1 30 
   2   2   1 32
   1   2   1 32
   0   0   0 
